c Sudoku solution
p cnf 729 0
116 0
135 0
147 0
191 0
211 0
298 0
329 0
392 0
431 0
453 0
537 0
554 0
586 0
628 0
679 0
695 0
593 0
721 0
749 0
763 0
865 0
927 0
317 0
338 0
934 0
844 0
839 0
999 0
958 0
168 0
525 0
445 0
548 0
519 0
469 0
426 0
736 0
667 0
896 0
159 0
122 0
233 0
224 0
289 0
277 0
376 0
385 0
343 0
364 0
351 0
255 0
823 0
613 0
632 0
414 0
497 0
684 0
571 0
562 0
656 0
641 0
961 0
946 0
242 0
266 0
881 0
857 0
752 0
183 0
174 0
973 0
775 0
982 0
878 0
718 0
915 0
812 0
472 0
488 0
787 0
794 0
